proyfinal/src/viki/013/experimentInOfficeAgust.take6.output/600de3d1-a7cc-47b7-a7c0-a752bbfd49e2.als.dat
{'cnf.clauses': '118081',
 'cnf.totvars': '69608',
 'conflict literals': '11',
 'conflicts': '8',
 'decisions': '6842',
 'memused.mb': '17.47',
 'outcome': 'UNSAT',
 'propagations': '35086',
 'restarts': '1',
 'solver.msecs': 31,
 'task.msecs': 123}
