proyfinal/src/viki/013/experimentInOfficeAgust.take6.output/600de3d1-a7cc-47b7-a7c0-a752bbfd49e2.als.out
Reading from standard input... Use '--help' for help.
============================[ Problem Statistics ]=============================
|                                                                             |
|  Number of variables:         69608                                         |
|  Number of clauses:          118081                                         |
|  Parse time:                   0.02 s                                       |
|                                                                             |
============================[ Search Statistics ]==============================
| Conflicts |          ORIGINAL         |          LEARNT          | Progress |
|           |    Vars  Clauses Literals |    Limit  Clauses Lit/Cl |          |
===============================================================================
===============================================================================
restarts              : 1
conflicts             : 8              (252 /sec)
decisions             : 6842           (0.00 % random) (215164 /sec)
propagations          : 35086          (1103368 /sec)
conflict literals     : 11             (0.00 % deleted)
Memory used           : 17.47 MB
CPU time              : 0.031799 s

UNSATISFIABLE
